solution status: optimal solution found
objective value:                     142440.710178218
d11(0,0)                                            1 	(obj:0)
d11(1,1)                                            1 	(obj:0)
d11(1,2)                                            1 	(obj:0)
d11(2,4)                                            1 	(obj:0)
d11(2,7)                                            1 	(obj:0)
d11(2,8)                                            1 	(obj:0)
d11(2,10)                                           1 	(obj:0)
d11(2,11)                                           1 	(obj:0)
d11(3,13)                                           1 	(obj:0)
d11(3,16)                                           1 	(obj:0)
d11(3,19)                                           1 	(obj:0)
d11(3,22)                                           1 	(obj:0)
d11(3,25)                                           1 	(obj:0)
d11(3,26)                                           1 	(obj:0)
d11(3,28)                                           1 	(obj:0)
d11(3,31)                                           1 	(obj:0)
d11(3,34)                                           1 	(obj:0)
d11(3,35)                                           1 	(obj:0)
d11(3,37)                                           1 	(obj:0)
d11(3,38)                                           1 	(obj:0)
d11(4,40)                                           1 	(obj:0)
d11(4,41)                                           1 	(obj:0)
d11(4,43)                                           1 	(obj:0)
d11(4,44)                                           1 	(obj:0)
d11(4,46)                                           1 	(obj:0)
d11(4,47)                                           1 	(obj:0)
d11(4,49)                                           1 	(obj:0)
d11(4,50)                                           1 	(obj:0)
d11(4,52)                                           1 	(obj:0)
d11(4,55)                                           1 	(obj:0)
d11(4,56)                                           1 	(obj:0)
d11(4,58)                                           1 	(obj:0)
d11(4,61)                                           1 	(obj:0)
d11(4,62)                                           1 	(obj:0)
d11(4,64)                                           1 	(obj:0)
d11(4,65)                                           1 	(obj:0)
d11(4,67)                                           1 	(obj:0)
d11(4,70)                                           1 	(obj:0)
d11(4,73)                                           1 	(obj:0)
d11(4,74)                                           1 	(obj:0)
d11(4,76)                                           1 	(obj:0)
d11(4,79)                                           1 	(obj:0)
d11(4,80)                                           1 	(obj:0)
d11(4,82)                                           1 	(obj:0)
d11(4,83)                                           1 	(obj:0)
d11(4,85)                                           1 	(obj:0)
d11(4,86)                                           1 	(obj:0)
d11(4,88)                                           1 	(obj:0)
d11(4,89)                                           1 	(obj:0)
d11(4,91)                                           1 	(obj:0)
d11(4,94)                                           1 	(obj:0)
d11(4,95)                                           1 	(obj:0)
d11(4,97)                                           1 	(obj:0)
d11(4,98)                                           1 	(obj:0)
d11(4,100)                                          1 	(obj:0)
d11(4,101)                                          1 	(obj:0)
d11(4,103)                                          1 	(obj:0)
d11(4,104)                                          1 	(obj:0)
d11(4,106)                                          1 	(obj:0)
d11(4,107)                                          1 	(obj:0)
d11(4,109)                                          1 	(obj:0)
d11(4,110)                                          1 	(obj:0)
d11(4,112)                                          1 	(obj:0)
d11(4,115)                                          1 	(obj:0)
d11(4,116)                                          1 	(obj:0)
d11(4,118)                                          1 	(obj:0)
d11(4,119)                                          1 	(obj:0)
d12(1,3)                                            1 	(obj:0)
d12(2,6)                                            1 	(obj:0)
d12(2,9)                                            1 	(obj:0)
d12(2,12)                                           1 	(obj:0)
d12(3,15)                                           1 	(obj:0)
d12(3,18)                                           1 	(obj:0)
d12(3,21)                                           1 	(obj:0)
d12(3,24)                                           1 	(obj:0)
d12(3,27)                                           1 	(obj:0)
d12(3,30)                                           1 	(obj:0)
d12(3,33)                                           1 	(obj:0)
d12(3,36)                                           1 	(obj:0)
d12(3,39)                                           1 	(obj:0)
d12(4,42)                                           1 	(obj:0)
d12(4,45)                                           1 	(obj:0)
d12(4,48)                                           1 	(obj:0)
d12(4,51)                                           1 	(obj:0)
d12(4,54)                                           1 	(obj:0)
d12(4,57)                                           1 	(obj:0)
d12(4,60)                                           1 	(obj:0)
d12(4,63)                                           1 	(obj:0)
d12(4,66)                                           1 	(obj:0)
d12(4,69)                                           1 	(obj:0)
d12(4,72)                                           1 	(obj:0)
d12(4,75)                                           1 	(obj:0)
d12(4,78)                                           1 	(obj:0)
d12(4,81)                                           1 	(obj:0)
d12(4,84)                                           1 	(obj:0)
d12(4,87)                                           1 	(obj:0)
d12(4,90)                                           1 	(obj:0)
d12(4,93)                                           1 	(obj:0)
d12(4,96)                                           1 	(obj:0)
d12(4,99)                                           1 	(obj:0)
d12(4,102)                                          1 	(obj:0)
d12(4,105)                                          1 	(obj:0)
d12(4,108)                                          1 	(obj:0)
d12(4,111)                                          1 	(obj:0)
d12(4,114)                                          1 	(obj:0)
d12(4,117)                                          1 	(obj:0)
d12(4,120)                                          1 	(obj:0)
d21(2,4)                                            1 	(obj:0)
d21(3,13)                                           1 	(obj:0)
d21(3,14)                                           1 	(obj:0)
d21(3,15)                                           1 	(obj:0)
d21(3,16)                                           1 	(obj:0)
d21(3,17)                                           1 	(obj:0)
d21(3,19)                                           1 	(obj:0)
d21(3,22)                                           1 	(obj:0)
d21(3,23)                                           1 	(obj:0)
d21(3,25)                                           1 	(obj:0)
d21(3,31)                                           1 	(obj:0)
d21(4,40)                                           1 	(obj:0)
d21(4,41)                                           1 	(obj:0)
d21(4,42)                                           1 	(obj:0)
d21(4,43)                                           1 	(obj:0)
d21(4,44)                                           1 	(obj:0)
d21(4,45)                                           1 	(obj:0)
d21(4,46)                                           1 	(obj:0)
d21(4,47)                                           1 	(obj:0)
d21(4,48)                                           1 	(obj:0)
d21(4,49)                                           1 	(obj:0)
d21(4,50)                                           1 	(obj:0)
d21(4,51)                                           1 	(obj:0)
d21(4,52)                                           1 	(obj:0)
d21(4,53)                                           1 	(obj:0)
d21(4,55)                                           1 	(obj:0)
d21(4,56)                                           1 	(obj:0)
d21(4,58)                                           1 	(obj:0)
d21(4,59)                                           1 	(obj:0)
d21(4,60)                                           1 	(obj:0)
d21(4,61)                                           1 	(obj:0)
d21(4,64)                                           1 	(obj:0)
d21(4,67)                                           1 	(obj:0)
d21(4,68)                                           1 	(obj:0)
d21(4,69)                                           1 	(obj:0)
d21(4,70)                                           1 	(obj:0)
d21(4,71)                                           1 	(obj:0)
d21(4,73)                                           1 	(obj:0)
d21(4,76)                                           1 	(obj:0)
d21(4,77)                                           1 	(obj:0)
d21(4,79)                                           1 	(obj:0)
d21(4,85)                                           1 	(obj:0)
d21(4,94)                                           1 	(obj:0)
d21(4,95)                                           1 	(obj:0)
d21(4,97)                                           1 	(obj:0)
d21(4,103)                                          1 	(obj:0)
y2(4,102)                            960.592982999987 	(obj:0)
y2(4,105)                            960.592982999987 	(obj:0)
y2(4,108)                            960.592982999987 	(obj:0)
y2(4,111)                            960.592982999987 	(obj:0)
y2(4,114)                            960.592982999987 	(obj:0)
y2(4,117)                            960.592982999987 	(obj:0)
y2(4,120)                            960.592982999987 	(obj:0)
STE(1,1)                             8348.43666615001 	(obj:0)
STE(0,0)                                        11025 	(obj:0)
STE(1,2)                              9345.2026694833 	(obj:0)
STE(1,3)                             10345.6051175811 	(obj:0)
STE(2,4)                             6469.67066281672 	(obj:0)
STE(2,5)                             7466.43666615001 	(obj:0)
STE(2,6)                                         8379 	(obj:0)
STE(2,7)                             7466.43666615001 	(obj:0)
STE(2,8)                              8463.2026694833 	(obj:0)
STE(2,9)                             9375.76600333329 	(obj:0)
STE(2,10)                            8466.83911424776 	(obj:0)
STE(2,11)                            9463.60511758102 	(obj:0)
STE(2,12)                             10376.168451431 	(obj:0)
STE(3,13)                            4590.90465948337 	(obj:0)
STE(3,14)                            5587.67066281672 	(obj:0)
STE(3,15)                            6500.23399666671 	(obj:0)
STE(3,16)                            5587.67066281666 	(obj:0)
STE(3,17)                            6584.43666615001 	(obj:0)
STE(3,18)                                        7497 	(obj:0)
STE(3,19)                            6500.23399666665 	(obj:0)
STE(3,20)                                        7497 	(obj:0)
STE(3,21)                            8409.56333384999 	(obj:0)
STE(3,22)                            5587.67066281666 	(obj:0)
STE(3,23)                            6584.43666615001 	(obj:0)
STE(3,24)                                        7497 	(obj:0)
STE(3,25)                            6584.43666615001 	(obj:0)
STE(3,26)                            7581.20266948324 	(obj:0)
STE(3,27)                            8493.76600333329 	(obj:0)
STE(3,28)                            7496.99999999994 	(obj:0)
STE(3,29)                            8493.76600333329 	(obj:0)
STE(3,30)                            9406.32933718328 	(obj:0)
STE(3,31)                            6588.07311091441 	(obj:0)
STE(3,32)                            7584.83911424776 	(obj:0)
STE(3,33)                            8497.40244809775 	(obj:0)
STE(3,34)                            7584.83911424767 	(obj:0)
STE(3,35)                            8581.60511758089 	(obj:0)
STE(3,36)                            9494.16845143101 	(obj:0)
STE(3,37)                            8497.40244809769 	(obj:0)
STE(3,38)                            9494.16845143104 	(obj:0)
STE(3,39)                             10406.731785281 	(obj:0)
STE(4,40)                            2712.13865615002 	(obj:0)
STE(4,41)                            3708.90465948337 	(obj:0)
STE(4,42)                            4621.46799333336 	(obj:0)
STE(4,43)                            3708.90465948337 	(obj:0)
STE(4,44)                            4705.67066281672 	(obj:0)
STE(4,45)                            5618.23399666671 	(obj:0)
STE(4,46)                            4621.46799333336 	(obj:0)
STE(4,47)                            5618.23399666671 	(obj:0)
STE(4,48)                             6530.7973305167 	(obj:0)
STE(4,49)                            3708.90465948331 	(obj:0)
STE(4,50)                            4705.67066281666 	(obj:0)
STE(4,51)                            5618.23399666665 	(obj:0)
STE(4,52)                            4705.67066281666 	(obj:0)
STE(4,53)                            5702.43666615001 	(obj:0)
STE(4,54)                                        6615 	(obj:0)
STE(4,55)                            5618.23399666665 	(obj:0)
STE(4,56)                                        6615 	(obj:0)
STE(4,57)                            7527.56333384999 	(obj:0)
STE(4,58)                             4621.4679933333 	(obj:0)
STE(4,59)                            5618.23399666665 	(obj:0)
STE(4,60)                            6530.79733051664 	(obj:0)
STE(4,61)                            5618.23399666665 	(obj:0)
STE(4,62)                                        6615 	(obj:0)
STE(4,63)                            7527.56333384999 	(obj:0)
STE(4,64)                            6530.79733051664 	(obj:0)
STE(4,65)                            7527.56333384999 	(obj:0)
STE(4,66)                            8440.12666769998 	(obj:0)
STE(4,67)                            3708.90465948331 	(obj:0)
STE(4,68)                            4705.67066281666 	(obj:0)
STE(4,69)                            5618.23399666665 	(obj:0)
STE(4,70)                            4705.67066281666 	(obj:0)
STE(4,71)                            5702.43666615001 	(obj:0)
STE(4,72)                                        6615 	(obj:0)
STE(4,73)                            5618.23399666665 	(obj:0)
STE(4,74)                                        6615 	(obj:0)
STE(4,75)                            7527.56333384999 	(obj:0)
STE(4,76)                            4705.67066281666 	(obj:0)
STE(4,77)                            5702.43666615001 	(obj:0)
STE(4,78)                                        6615 	(obj:0)
STE(4,79)                            5702.43666614989 	(obj:0)
STE(4,80)                            6699.20266948324 	(obj:0)
STE(4,81)                            7611.76600333323 	(obj:0)
STE(4,82)                            6614.99999999994 	(obj:0)
STE(4,83)                            7611.76600333329 	(obj:0)
STE(4,84)                            8524.32933718328 	(obj:0)
STE(4,85)                            5618.23399666659 	(obj:0)
STE(4,86)                            6614.99999999994 	(obj:0)
STE(4,87)                            7527.56333384993 	(obj:0)
STE(4,88)                            6614.99999999994 	(obj:0)
STE(4,89)                            7611.76600333329 	(obj:0)
STE(4,90)                            8524.32933718328 	(obj:0)
STE(4,91)                            7527.56333384993 	(obj:0)
STE(4,92)                            8524.32933718328 	(obj:0)
STE(4,93)                            9436.89267103327 	(obj:0)
STE(4,94)                            4709.30710758106 	(obj:0)
STE(4,95)                            5706.07311091441 	(obj:0)
STE(4,96)                             6618.6364447644 	(obj:0)
STE(4,97)                            5706.07311091441 	(obj:0)
STE(4,98)                            6702.83911424776 	(obj:0)
STE(4,99)                            7615.40244809775 	(obj:0)
STE(4,100)                            6618.6364447644 	(obj:0)
STE(4,101)                           7615.40244809769 	(obj:0)
STE(4,102)                           8527.96578194773 	(obj:0)
STE(4,103)                           5706.07311091432 	(obj:0)
STE(4,104)                           6702.83911424761 	(obj:0)
STE(4,105)                           7615.40244809766 	(obj:0)
STE(4,106)                           6702.83911424754 	(obj:0)
STE(4,107)                           7699.60511758089 	(obj:0)
STE(4,108)                           8612.16845143087 	(obj:0)
STE(4,109)                           7615.40244809766 	(obj:0)
STE(4,110)                           8612.16845143095 	(obj:0)
STE(4,111)                             9524.731785281 	(obj:0)
STE(4,112)                           6618.63644476434 	(obj:0)
STE(4,113)                           7615.40244809769 	(obj:0)
STE(4,114)                           8527.96578194768 	(obj:0)
STE(4,115)                           7615.40244809769 	(obj:0)
STE(4,116)                           8612.16845143098 	(obj:0)
STE(4,117)                           9524.73178528103 	(obj:0)
STE(4,118)                           8527.96578194767 	(obj:0)
STE(4,119)                           9524.73178528096 	(obj:0)
STE(4,120)                            10437.295119131 	(obj:0)
y1(4,100)                            897.089403000015 	(obj:0)
y1(4,103)                            897.089403000015 	(obj:0)
y1(4,106)                            897.089403000015 	(obj:0)
y1(4,109)                            897.089403000015 	(obj:0)
y1(4,112)                            897.089403000015 	(obj:0)
y1(4,115)                            897.089403000015 	(obj:0)
y1(4,118)                            897.089403000015 	(obj:0)
WB(3)                                 3399.3204933139 	(obj:0)
AVE(3)                                3399.3204933139 	(obj:0)
AVE(4)                               3353.21046544222 	(obj:0)
y2(4,99)                             960.592982999987 	(obj:0)
WG(2)                            1.19321157399099e-008 	(obj:10)
WG(4)                                3353.21046544222 	(obj:10)
BG(1)                                 4110.5210178214 	(obj:10)
BG(2)                                3377.84999998807 	(obj:10)
BG(3)                                         3377.85 	(obj:10)
BG(4)                                24.6395345577802 	(obj:10)
WB(1)                                3134.60043707458 	(obj:0)
AVE(1)                               3134.60043707458 	(obj:0)
WB(2)                                 3326.4517086545 	(obj:0)
AVE(2)                               3326.45170866643 	(obj:0)
y1(1,1)                              1615.10700046499 	(obj:0)
y1(1,2)                              718.017597465026 	(obj:0)
y1(2,4)                              897.089402999962 	(obj:0)
y1(2,7)                              897.089402999962 	(obj:0)
y1(2,10)                             897.089402999962 	(obj:0)
y1(3,13)                             897.089403000015 	(obj:0)
y1(3,16)                             897.089403000015 	(obj:0)
y1(3,19)                             897.089403000015 	(obj:0)
y1(3,22)                             897.089403000015 	(obj:0)
y1(3,25)                             897.089402999962 	(obj:0)
y1(3,28)                             897.089403000015 	(obj:0)
y1(3,31)                             897.089403000015 	(obj:0)
y1(3,34)                             897.089403000015 	(obj:0)
y1(3,37)                             897.089403000015 	(obj:0)
y1(4,40)                             897.089403000015 	(obj:0)
y1(4,43)                             897.089403000015 	(obj:0)
y1(4,46)                             897.089403000015 	(obj:0)
y1(4,49)                             897.089403000015 	(obj:0)
y1(4,52)                             897.089403000015 	(obj:0)
y1(4,55)                             897.089403000015 	(obj:0)
y1(4,58)                             897.089403000015 	(obj:0)
y1(4,61)                             897.089403000015 	(obj:0)
y1(4,64)                             897.089403000015 	(obj:0)
y1(4,67)                             897.089403000015 	(obj:0)
y1(4,70)                             897.089403000015 	(obj:0)
y1(4,73)                             897.089403000015 	(obj:0)
y1(4,76)                             897.089403000015 	(obj:0)
y1(4,79)                             897.089403000015 	(obj:0)
y1(4,82)                             897.089403000015 	(obj:0)
y1(4,85)                             897.089403000015 	(obj:0)
y1(4,88)                             897.089403000015 	(obj:0)
y1(4,91)                             897.089403000015 	(obj:0)
y1(4,94)                             897.089403000015 	(obj:0)
y1(4,97)                             897.089403000015 	(obj:0)
y2(1,3)                              213.268544822158 	(obj:0)
y2(2,6)                              960.592982999987 	(obj:0)
y2(2,9)                              960.592982999987 	(obj:0)
y2(2,12)                             960.592982999987 	(obj:0)
y2(3,15)                             960.592982999986 	(obj:0)
y2(3,18)                             960.592982999986 	(obj:0)
y2(3,21)                             960.592982999986 	(obj:0)
y2(3,24)                             960.592982999986 	(obj:0)
y2(3,27)                             960.592982999986 	(obj:0)
y2(3,30)                             960.592982999986 	(obj:0)
y2(3,33)                             960.592982999986 	(obj:0)
y2(3,36)                             960.592982999986 	(obj:0)
y2(3,39)                             960.592982999986 	(obj:0)
y2(4,42)                             960.592982999987 	(obj:0)
y2(4,45)                             960.592982999987 	(obj:0)
y2(4,48)                             960.592982999987 	(obj:0)
y2(4,51)                             960.592982999987 	(obj:0)
y2(4,54)                             960.592982999987 	(obj:0)
y2(4,57)                             960.592982999987 	(obj:0)
y2(4,60)                             960.592982999987 	(obj:0)
y2(4,63)                             960.592982999987 	(obj:0)
y2(4,66)                             960.592982999987 	(obj:0)
y2(4,69)                             960.592982999987 	(obj:0)
y2(4,72)                             960.592982999987 	(obj:0)
y2(4,75)                             960.592982999987 	(obj:0)
y2(4,78)                             960.592982999987 	(obj:0)
y2(4,81)                             960.592982999987 	(obj:0)
y2(4,84)                             960.592982999987 	(obj:0)
y2(4,87)                             960.592982999987 	(obj:0)
y2(4,90)                             960.592982999987 	(obj:0)
y2(4,93)                             960.592982999987 	(obj:0)
y2(4,96)                             960.592982999987 	(obj:0)
